c *********************************
c * Circuit generated by BenCGen
c *
c * DaddaTreeMultiplier_3
c *
c * Ports with 1 gate(s): 2
c * Ports with 2 gate(s): 39
c * Ports with 3 gate(s): 6
c * Ports with 4 gate(s): 5
c * Ports with 5 gate(s): 4
c * Ports with 6 gate(s): 3
c * Ports with 7 gate(s): 2
c * Total gates: 61
c *********************************
p cnf 67 245
1 14 0
-1 -14 0
1 -13 0
14 -13 0
-1 -14 13 0
15 13 -29 0
-15 13 29 0
15 -13 29 0
-15 -13 -29 0
15 -35 0
13 -35 0
-15 -13 35 0
16 18 -30 0
-16 18 30 0
16 -18 30 0
-16 -18 -30 0
16 -36 0
18 -36 0
-16 -18 36 0
24 21 -31 0
-24 21 31 0
24 -21 31 0
-24 -21 -31 0
24 -37 0
21 -37 0
-24 -21 37 0
25 26 -32 0
-25 26 32 0
25 -26 32 0
-25 -26 -32 0
25 -38 0
26 -38 0
-25 -26 38 0
27 23 -33 0
-27 23 33 0
27 -23 33 0
-27 -23 -33 0
27 -39 0
23 -39 0
-27 -23 39 0
13 13 -34 0
-13 13 34 0
13 -13 34 0
-13 -13 -34 0
13 -40 0
13 -40 0
-13 -13 40 0
13 -47 0
29 -47 0
-13 -29 47 0
13 -48 0
29 -48 0
30 -48 0
-13 -29 -30 48 0
35 -49 0
30 -49 0
-35 -30 49 0
13 -50 0
29 -50 0
30 -50 0
31 -50 0
-13 -29 -30 -31 50 0
35 -51 0
30 -51 0
31 -51 0
-35 -30 -31 51 0
36 -52 0
31 -52 0
-36 -31 52 0
13 -53 0
29 -53 0
30 -53 0
31 -53 0
32 -53 0
-13 -29 -30 -31 -32 53 0
35 -54 0
30 -54 0
31 -54 0
32 -54 0
-35 -30 -31 -32 54 0
36 -55 0
31 -55 0
32 -55 0
-36 -31 -32 55 0
37 -56 0
32 -56 0
-37 -32 56 0
13 -57 0
29 -57 0
30 -57 0
31 -57 0
32 -57 0
33 -57 0
-13 -29 -30 -31 -32 -33 57 0
35 -58 0
30 -58 0
31 -58 0
32 -58 0
33 -58 0
-35 -30 -31 -32 -33 58 0
36 -59 0
31 -59 0
32 -59 0
33 -59 0
-36 -31 -32 -33 59 0
37 -60 0
32 -60 0
33 -60 0
-37 -32 -33 60 0
38 -61 0
33 -61 0
-38 -33 61 0
13 -62 0
29 -62 0
30 -62 0
31 -62 0
32 -62 0
33 -62 0
34 -62 0
-13 -29 -30 -31 -32 -33 -34 62 0
35 -63 0
30 -63 0
31 -63 0
32 -63 0
33 -63 0
34 -63 0
-35 -30 -31 -32 -33 -34 63 0
36 -64 0
31 -64 0
32 -64 0
33 -64 0
34 -64 0
-36 -31 -32 -33 -34 64 0
37 -65 0
32 -65 0
33 -65 0
34 -65 0
-37 -32 -33 -34 65 0
38 -66 0
33 -66 0
34 -66 0
-38 -33 -34 66 0
39 -67 0
34 -67 0
-39 -34 67 0
-35 41 0
-47 41 0
35 47 -41 0
-36 42 0
-48 42 0
-49 42 0
36 48 49 -42 0
-37 43 0
-50 43 0
-51 43 0
-52 43 0
37 50 51 52 -43 0
-38 44 0
-53 44 0
-54 44 0
-55 44 0
-56 44 0
38 53 54 55 56 -44 0
-39 45 0
-57 45 0
-58 45 0
-59 45 0
-60 45 0
-61 45 0
39 57 58 59 60 61 -45 0
-40 46 0
-62 46 0
-63 46 0
-64 46 0
-65 46 0
-66 46 0
-67 46 0
40 62 63 64 65 66 67 -46 0
29 13 -7 0
-29 13 7 0
29 -13 7 0
-29 -13 -7 0
30 41 -8 0
-30 41 8 0
30 -41 8 0
-30 -41 -8 0
31 42 -9 0
-31 42 9 0
31 -42 9 0
-31 -42 -9 0
32 43 -10 0
-32 43 10 0
32 -43 10 0
-32 -43 -10 0
33 44 -11 0
-33 44 11 0
33 -44 11 0
-33 -44 -11 0
34 45 -12 0
-34 45 12 0
34 -45 12 0
-34 -45 -12 0
46 -28 0
-46 28 0
1 -15 0
4 -15 0
-1 -4 15 0
2 -16 0
4 -16 0
-2 -4 16 0
3 -17 0
4 -17 0
-3 -4 17 0
1 -18 0
5 -18 0
-1 -5 18 0
2 -19 0
5 -19 0
-2 -5 19 0
3 -20 0
5 -20 0
-3 -5 20 0
1 -21 0
6 -21 0
-1 -6 21 0
2 -22 0
6 -22 0
-2 -6 22 0
3 -23 0
6 -23 0
-3 -6 23 0
17 19 -24 0
-17 19 24 0
17 -19 24 0
-17 -19 -24 0
17 -25 0
19 -25 0
-17 -19 25 0
20 22 -26 0
-20 22 26 0
20 -22 26 0
-20 -22 -26 0
20 -27 0
22 -27 0
-20 -22 27 0
